(set-option :print-success true)
(set-option :produce-models true)
(set-option :produce-unsat-cores true)
(declare-const amt__clif2__7 (_ BitVec 6))
(declare-const let__20 (_ BitVec 64))
(declare-const lsl_imm__16 (_ BitVec 64))
(declare-const lsl_imm__16__a__89 (_ BitVec 64))
(declare-const lsl_imm__16__b__92 (_ BitVec 6))
(declare-const lsl_imm__16__result__84 (_ BitVec 64))
(declare-const lsl_imm__16__ty__85 Int)
(declare-const lsr_imm__12 (_ BitVec 64))
(declare-const lsr_imm__12__a__62 (_ BitVec 64))
(declare-const lsr_imm__12__b__65 (_ BitVec 6))
(declare-const lsr_imm__12__result__57 (_ BitVec 64))
(declare-const lsr_imm__12__ty__58 Int)
(declare-const orr__19 (_ BitVec 64))
(declare-const orr__19__a__106 (_ BitVec 64))
(declare-const orr__19__b__108 (_ BitVec 64))
(declare-const orr__19__result__101 (_ BitVec 64))
(declare-const orr__19__ty__102 Int)
(declare-const rotr_opposite_amount__15 (_ BitVec 6))
(declare-const rotr_opposite_amount__15__result__82 (_ BitVec 6))
(declare-const rotr_opposite_amount__15__ty__74 Int)
(declare-const rotr_opposite_amount__15__x__76 (_ BitVec 6))
(declare-const small_rotr_imm__10 (_ BitVec 64))
(declare-const small_rotr_imm__10__result__21 (_ BitVec 64))
(declare-const small_rotr_imm__10__t__22 Int)
(declare-const small_rotr_imm__10__x__26 (_ BitVec 64))
(declare-const small_rotr_imm__10__y__29 (_ BitVec 6))
(declare-const ty__clif0__1 Int)
(declare-const val__clif1__4 (_ BitVec 64))
(declare-const val_lshift__clif4__17 (_ BitVec 64))
(declare-const val_rshift__clif3__13 (_ BitVec 64))
(declare-const width__57 Int)
(declare-const width__27 Int)
(declare-const width__48 Int)
(declare-const width__95 Int)
(declare-const width__68 Int)
(declare-const width__63 Int)
(declare-const width__30 Int)
(declare-const width__59 Int)
(declare-const width__35 Int)
(declare-const width__108 Int)
(declare-const width__80 Int)
(declare-const width__81 Int)
(declare-const width__53 Int)
(declare-const width__89 Int)
(declare-const width__98 Int)
(declare-const width__29 Int)
(declare-const width__112 Int)
(declare-const width__84 Int)
(declare-const width__52 Int)
(declare-const width__67 Int)
(declare-const width__93 Int)
(declare-const width__82 Int)
(declare-const width__101 Int)
(declare-const width__76 Int)
(declare-const width__109 Int)
(declare-const width__77 Int)
(declare-const width__72 Int)
(declare-const width__79 Int)
(declare-const width__71 Int)
(declare-const width__39 Int)
(declare-const width__26 Int)
(declare-const width__32 Int)
(declare-const width__49 Int)
(declare-const width__94 Int)
(declare-const width__23 Int)
(declare-const width__4 Int)
(declare-const width__5 Int)
(declare-const width__65 Int)
(declare-const width__66 Int)
(declare-const width__99 Int)
(declare-const width__12 Int)
(declare-const width__15 Int)
(declare-const width__37 Int)
(declare-const width__8 Int)
(declare-const width__110 Int)
(declare-const width__107 Int)
(declare-const width__31 Int)
(declare-const width__10 Int)
(declare-const width__38 Int)
(declare-const width__78 Int)
(declare-const width__16 Int)
(declare-const width__13 Int)
(declare-const width__62 Int)
(declare-const width__17 Int)
(declare-const width__90 Int)
(declare-const width__92 Int)
(declare-const width__106 Int)
(declare-const width__113 Int)
(declare-const width__111 Int)
(declare-const width__21 Int)
(declare-const width__86 Int)
(declare-const width__20 Int)
(declare-const width__19 Int)
(declare-const width__7 Int)
(declare-const width__55 Int)
(declare-const amt__clif2__7_narrow__7 (_ BitVec 6))
(declare-const amt__clif2__7_wide__7 (_ BitVec 64))
(declare-const fresh0 (_ BitVec 58))
(declare-const lsl_imm__16__b__92_narrow__92 (_ BitVec 6))
(declare-const lsl_imm__16__b__92_wide__92 (_ BitVec 64))
(declare-const fresh1 (_ BitVec 58))
(declare-const lsr_imm__12__b__65_narrow__65 (_ BitVec 6))
(declare-const lsr_imm__12__b__65_wide__65 (_ BitVec 64))
(declare-const fresh2 (_ BitVec 58))
(declare-const rotr_opposite_amount__15_narrow__15 (_ BitVec 6))
(declare-const rotr_opposite_amount__15_wide__15 (_ BitVec 64))
(declare-const fresh3 (_ BitVec 58))
(declare-const rotr_opposite_amount__15__result__82_narrow__82 (_ BitVec 6))
(declare-const rotr_opposite_amount__15__result__82_wide__82 (_ BitVec 64))
(declare-const fresh4 (_ BitVec 58))
(declare-const rotr_opposite_amount__15__x__76_narrow__76 (_ BitVec 6))
(declare-const rotr_opposite_amount__15__x__76_wide__76 (_ BitVec 64))
(declare-const fresh5 (_ BitVec 58))
(declare-const small_rotr_imm__10__y__29_narrow__29 (_ BitVec 6))
(declare-const small_rotr_imm__10__y__29_wide__29 (_ BitVec 64))
(declare-const fresh6 (_ BitVec 58))
(declare-const fresh7 Int)
(declare-const fresh8 (_ BitVec 64))
(declare-const fresh9 (_ BitVec 64))
(declare-const fresh10 (_ BitVec 56))
(declare-const fresh11 (_ BitVec 48))
(declare-const fresh12 (_ BitVec 40))
(declare-const narrow__49 (_ BitVec 24))
(declare-const wide__49 (_ BitVec 64))
(declare-const fresh13 (_ BitVec 40))
(declare-const fresh14 (_ BitVec 48))
(declare-const narrow__53 (_ BitVec 16))
(declare-const wide__53 (_ BitVec 64))
(declare-const fresh15 (_ BitVec 48))
(declare-const fresh16 (_ BitVec 32))
(declare-const narrow__78 (_ BitVec 6))
(declare-const wide__78 (_ BitVec 64))
(declare-const fresh17 (_ BitVec 58))
(declare-const fresh18 (_ BitVec 32))
(declare-const fresh19 (_ BitVec 32))
(declare-const fresh20 (_ BitVec 32))
(push)
(assert (! (= ty__clif0__1 fresh7) :named dyn0))
(assert (! (= val__clif1__4 fresh8) :named dyn1))
(assert (! (= amt__clif2__7_wide__7 fresh9) :named dyn2))
(assert (! (= small_rotr_imm__10__result__21 (ite (= small_rotr_imm__10__t__22 8) (concat fresh10 ((_ extract 7 0) small_rotr_imm__10__x__26)) (concat fresh11 ((_ extract 15 0) small_rotr_imm__10__x__26)))) :named dyn3))
(assert (! (or (= small_rotr_imm__10__t__22 8) (= small_rotr_imm__10__t__22 16)) :named dyn4))
(assert (! (ite (= small_rotr_imm__10__t__22 8) (= (concat fresh12 ((_ extract 31 8) small_rotr_imm__10__x__26)) wide__49) (= (concat fresh14 ((_ extract 31 16) small_rotr_imm__10__x__26)) wide__53)) :named dyn5))
(assert (! (bvult small_rotr_imm__10__y__29_wide__29 ((_ zero_extend 58) ((_ int2bv 6) small_rotr_imm__10__t__22))) :named dyn6))
(assert (! (= ty__clif0__1 small_rotr_imm__10__t__22) :named dyn7))
(assert (! (= val__clif1__4 small_rotr_imm__10__x__26) :named dyn8))
(assert (! (= amt__clif2__7_wide__7 small_rotr_imm__10__y__29_wide__29) :named dyn9))
(assert (! (= small_rotr_imm__10 small_rotr_imm__10__result__21) :named dyn10))
(assert (! (= lsr_imm__12__result__57 (ite (= lsr_imm__12__ty__58 32) (concat fresh16 ((_ extract 31 0) lsr_imm__12__a__62)) lsr_imm__12__a__62)) :named dyn11))
(assert (! (= 32 lsr_imm__12__ty__58) :named dyn12))
(assert (! (= val__clif1__4 lsr_imm__12__a__62) :named dyn13))
(assert (! (= amt__clif2__7_wide__7 lsr_imm__12__b__65_wide__65) :named dyn14))
(assert (! (= lsr_imm__12 lsr_imm__12__result__57) :named dyn15))
(assert (! (= ((_ zero_extend 58) (bvsub ((_ extract 5 0) ((_ zero_extend 58) ((_ int2bv 6) rotr_opposite_amount__15__ty__74))) ((_ extract 5 0) ((_ zero_extend 58) (bvand ((_ extract 5 0) rotr_opposite_amount__15__x__76_wide__76) ((_ extract 5 0) ((_ zero_extend 58) (bvsub ((_ extract 5 0) ((_ zero_extend 58) ((_ int2bv 6) rotr_opposite_amount__15__ty__74))) ((_ extract 5 0) wide__78))))))))) rotr_opposite_amount__15__result__82_wide__82) :named dyn16))
(assert (! (= ty__clif0__1 rotr_opposite_amount__15__ty__74) :named dyn17))
(assert (! (= amt__clif2__7_wide__7 rotr_opposite_amount__15__x__76_wide__76) :named dyn18))
(assert (! (= rotr_opposite_amount__15_wide__15 rotr_opposite_amount__15__result__82_wide__82) :named dyn19))
(assert (! (= lsl_imm__16__result__84 (ite (= lsl_imm__16__ty__85 32) ((_ zero_extend 32) (bvshl ((_ extract 31 0) (concat fresh18 ((_ extract 31 0) lsl_imm__16__a__89))) ((_ extract 31 0) (concat ((_ extract 63 32) lsl_imm__16__b__92_wide__92) ((_ zero_extend 26) ((_ extract 5 0) lsl_imm__16__b__92_wide__92)))))) (bvshl lsl_imm__16__a__89 ((_ zero_extend 58) ((_ extract 5 0) lsl_imm__16__b__92_wide__92))))) :named dyn20))
(assert (! (= 32 lsl_imm__16__ty__85) :named dyn21))
(assert (! (= val__clif1__4 lsl_imm__16__a__89) :named dyn22))
(assert (! (= rotr_opposite_amount__15_wide__15 lsl_imm__16__b__92_wide__92) :named dyn23))
(assert (! (= lsl_imm__16 lsl_imm__16__result__84) :named dyn24))
(assert (! (= orr__19__result__101 (ite (<= orr__19__ty__102 32) ((_ zero_extend 32) (bvor ((_ extract 31 0) (concat fresh19 ((_ extract 31 0) orr__19__a__106))) ((_ extract 31 0) (concat fresh20 ((_ extract 31 0) orr__19__b__108))))) (bvor orr__19__a__106 orr__19__b__108))) :named dyn25))
(assert (! (= 32 orr__19__ty__102) :named dyn26))
(assert (! (= val_lshift__clif4__17 orr__19__a__106) :named dyn27))
(assert (! (= val_rshift__clif3__13 orr__19__b__108) :named dyn28))
(assert (! (= orr__19 orr__19__result__101) :named dyn29))
(assert (! (= val_rshift__clif3__13 lsr_imm__12) :named dyn30))
(assert (! (= val_lshift__clif4__17 lsl_imm__16) :named dyn31))
(assert (! (= width__57 64) :named dyn32))
(assert (! (= width__27 8) :named dyn33))
(assert (! (= width__48 24) :named dyn34))
(assert (! (= width__95 64) :named dyn35))
(assert (! (= width__68 64) :named dyn36))
(assert (! (= width__63 32) :named dyn37))
(assert (! (> width__30 0) :named dyn38))
(assert (! (= width__59 64) :named dyn39))
(assert (! (= width__35 16) :named dyn40))
(assert (! (= width__108 64) :named dyn41))
(assert (! (= width__80 6) :named dyn42))
(assert (! (= width__81 6) :named dyn43))
(assert (! (= width__53 16) :named dyn44))
(assert (! (= width__89 64) :named dyn45))
(assert (! (= width__98 64) :named dyn46))
(assert (! (= width__29 6) :named dyn47))
(assert (! (= width__112 64) :named dyn48))
(assert (! (= width__84 64) :named dyn49))
(assert (! (= width__52 16) :named dyn50))
(assert (! (= width__67 32) :named dyn51))
(assert (! (= width__93 32) :named dyn52))
(assert (! (= width__82 6) :named dyn53))
(assert (! (= width__101 64) :named dyn54))
(assert (! (= width__76 6) :named dyn55))
(assert (! (= width__109 32) :named dyn56))
(assert (! (= width__77 6) :named dyn57))
(assert (! (= width__72 64) :named dyn58))
(assert (! (= width__79 6) :named dyn59))
(assert (! (= width__71 64) :named dyn60))
(assert (! (= width__39 64) :named dyn61))
(assert (! (= width__26 64) :named dyn62))
(assert (! (= width__32 64) :named dyn63))
(assert (! (= width__49 24) :named dyn64))
(assert (! (= width__94 32) :named dyn65))
(assert (! (= width__23 64) :named dyn66))
(assert (! (= width__4 64) :named dyn67))
(assert (! (= width__5 64) :named dyn68))
(assert (! (= width__65 6) :named dyn69))
(assert (! (= width__66 32) :named dyn70))
(assert (! (= width__99 64) :named dyn71))
(assert (! (= width__12 64) :named dyn72))
(assert (! (= width__15 6) :named dyn73))
(assert (! (> width__37 0) :named dyn74))
(assert (! (= width__8 6) :named dyn75))
(assert (! (= width__110 32) :named dyn76))
(assert (! (= width__107 32) :named dyn77))
(assert (! (= width__31 8) :named dyn78))
(assert (! (= width__10 64) :named dyn79))
(assert (! (= width__38 16) :named dyn80))
(assert (! (= width__78 6) :named dyn81))
(assert (! (= width__16 64) :named dyn82))
(assert (! (= width__13 64) :named dyn83))
(assert (! (= width__62 64) :named dyn84))
(assert (! (= width__17 64) :named dyn85))
(assert (! (= width__90 32) :named dyn86))
(assert (! (= width__92 6) :named dyn87))
(assert (! (= width__106 64) :named dyn88))
(assert (! (= width__113 64) :named dyn89))
(assert (! (= width__111 64) :named dyn90))
(assert (! (= width__21 64) :named dyn91))
(assert (! (= width__86 64) :named dyn92))
(assert (! (= width__20 64) :named dyn93))
(assert (! (= width__19 64) :named dyn94))
(assert (! (= width__7 6) :named dyn95))
(assert (! (= width__55 6) :named dyn96))
(assert (! (= width__23 width__32) :named dyn97))
(assert (! (= width__23 width__39) :named dyn98))
(assert (! (= width__31 width__27) :named dyn99))
(assert (! (= width__27 width__30) :named dyn100))
(assert (! (= width__30 8) :named dyn101))
(assert (! (= width__38 width__35) :named dyn102))
(assert (! (= width__35 width__37) :named dyn103))
(assert (! (= width__37 16) :named dyn104))
(assert (! (= width__59 width__68) :named dyn105))
(assert (! (= width__59 width__72) :named dyn106))
(assert (! (= width__67 width__63) :named dyn107))
(assert (! (= width__72 width__62) :named dyn108))
(assert (! (= width__81 width__77) :named dyn109))
(assert (! (= width__80 width__76) :named dyn110))
(assert (! (= width__79 width__77) :named dyn111))
(assert (! (= width__86 width__95) :named dyn112))
(assert (! (= width__86 width__99) :named dyn113))
(assert (! (= width__94 width__90) :named dyn114))
(assert (! (= width__93 32) :named dyn115))
(assert (! (= width__99 width__89) :named dyn116))
(assert (! (= width__98 64) :named dyn117))
(assert (! (= width__113 width__111) :named dyn118))
(assert (! (= width__113 width__112) :named dyn119))
(assert (! (= width__110 width__107) :named dyn120))
(assert (! (= width__112 width__106) :named dyn121))
(assert (! (= amt__clif2__7_narrow__7 amt__clif2__7) :named dyn122))
(assert (! (= amt__clif2__7_wide__7 (concat fresh0 amt__clif2__7_narrow__7)) :named dyn123))
(assert (! (= let__20 let__20) :named dyn124))
(assert (! (= lsl_imm__16 lsl_imm__16) :named dyn125))
(assert (! (= lsl_imm__16__a__89 lsl_imm__16__a__89) :named dyn126))
(assert (! (= lsl_imm__16__b__92_narrow__92 lsl_imm__16__b__92) :named dyn127))
(assert (! (= lsl_imm__16__b__92_wide__92 (concat fresh1 lsl_imm__16__b__92_narrow__92)) :named dyn128))
(assert (! (= lsl_imm__16__result__84 lsl_imm__16__result__84) :named dyn129))
(assert (! (= lsr_imm__12 lsr_imm__12) :named dyn130))
(assert (! (= lsr_imm__12__a__62 lsr_imm__12__a__62) :named dyn131))
(assert (! (= lsr_imm__12__b__65_narrow__65 lsr_imm__12__b__65) :named dyn132))
(assert (! (= lsr_imm__12__b__65_wide__65 (concat fresh2 lsr_imm__12__b__65_narrow__65)) :named dyn133))
(assert (! (= lsr_imm__12__result__57 lsr_imm__12__result__57) :named dyn134))
(assert (! (= orr__19 orr__19) :named dyn135))
(assert (! (= orr__19__a__106 orr__19__a__106) :named dyn136))
(assert (! (= orr__19__b__108 orr__19__b__108) :named dyn137))
(assert (! (= orr__19__result__101 orr__19__result__101) :named dyn138))
(assert (! (= rotr_opposite_amount__15_narrow__15 rotr_opposite_amount__15) :named dyn139))
(assert (! (= rotr_opposite_amount__15_wide__15 (concat fresh3 rotr_opposite_amount__15_narrow__15)) :named dyn140))
(assert (! (= rotr_opposite_amount__15__result__82_narrow__82 rotr_opposite_amount__15__result__82) :named dyn141))
(assert (! (= rotr_opposite_amount__15__result__82_wide__82 (concat fresh4 rotr_opposite_amount__15__result__82_narrow__82)) :named dyn142))
(assert (! (= rotr_opposite_amount__15__x__76_narrow__76 rotr_opposite_amount__15__x__76) :named dyn143))
(assert (! (= rotr_opposite_amount__15__x__76_wide__76 (concat fresh5 rotr_opposite_amount__15__x__76_narrow__76)) :named dyn144))
(assert (! (= small_rotr_imm__10 small_rotr_imm__10) :named dyn145))
(assert (! (= small_rotr_imm__10__result__21 small_rotr_imm__10__result__21) :named dyn146))
(assert (! (= small_rotr_imm__10__x__26 small_rotr_imm__10__x__26) :named dyn147))
(assert (! (= small_rotr_imm__10__y__29_narrow__29 small_rotr_imm__10__y__29) :named dyn148))
(assert (! (= small_rotr_imm__10__y__29_wide__29 (concat fresh6 small_rotr_imm__10__y__29_narrow__29)) :named dyn149))
(assert (! (= val__clif1__4 val__clif1__4) :named dyn150))
(assert (! (= val_lshift__clif4__17 val_lshift__clif4__17) :named dyn151))
(assert (! (= val_rshift__clif3__13 val_rshift__clif3__13) :named dyn152))
(assert (! (= narrow__49 (_ bv0 24)) :named dyn153))
(assert (! (= wide__49 (concat fresh13 narrow__49)) :named dyn154))
(assert (! (= narrow__53 (_ bv0 16)) :named dyn155))
(assert (! (= wide__53 (concat fresh15 narrow__53)) :named dyn156))
(assert (! (= narrow__78 (_ bv1 6)) :named dyn157))
(assert (! (= wide__78 (concat fresh17 narrow__78)) :named dyn158))
(check-sat)
(get-value (width__57))
(get-value (width__27))
(get-value (width__48))
(get-value (width__95))
(get-value (width__68))
(get-value (width__63))
(get-value (width__30))
(get-value (width__59))
(get-value (width__35))
(get-value (width__108))
(get-value (width__80))
(get-value (width__81))
(get-value (width__53))
(get-value (width__89))
(get-value (width__98))
(get-value (width__29))
(get-value (width__112))
(get-value (width__84))
(get-value (width__52))
(get-value (width__67))
(get-value (width__93))
(get-value (width__82))
(get-value (width__101))
(get-value (width__76))
(get-value (width__109))
(get-value (width__77))
(get-value (width__72))
(get-value (width__79))
(get-value (width__71))
(get-value (width__39))
(get-value (width__26))
(get-value (width__32))
(get-value (width__49))
(get-value (width__94))
(get-value (width__23))
(get-value (width__4))
(get-value (width__5))
(get-value (width__65))
(get-value (width__66))
(get-value (width__99))
(get-value (width__12))
(get-value (width__15))
(get-value (width__37))
(get-value (width__8))
(get-value (width__110))
(get-value (width__107))
(get-value (width__31))
(get-value (width__10))
(get-value (width__38))
(get-value (width__78))
(get-value (width__16))
(get-value (width__13))
(get-value (width__62))
(get-value (width__17))
(get-value (width__90))
(get-value (width__92))
(get-value (width__106))
(get-value (width__113))
(get-value (width__111))
(get-value (width__21))
(get-value (width__86))
(get-value (width__20))
(get-value (width__19))
(get-value (width__7))
(get-value (width__55))
(assert (or (not (= width__37 16)) (not (= width__30 8))))
(check-sat)
